language ESSENCE' 1.0
letting lastdx=99
letting cage be [
[44,5,13,5,12,4,12,3,12,3,13],
[8,16,8,0,0, 0,0, 0,0, 0,0],
[27,14,7,13,7,13,8,0,0, 0,0],
[14,15,10,15,11,14,11,0,0, 0,0],
[24,16,14,16,15,16,16,0,0, 0,0],
[12,5,8,6,8,0,0, 0,0, 0,0],
[23,7,4,7,3,0,0, 0,0, 0,0],
[44,10,1,10,2,10,3,10,4,0,0],
[27,2,11,3,11,0,0, 0,0, 0,0],
[31,16,13,16,12,15,12,14,12,13,12],
[29,5,15,5,14,6,14,6,13,0,0],
[15,9,6,0,0, 0,0, 0,0, 0,0],
[1,11,8,0,0, 0,0, 0,0, 0,0],
[5,13,10,0,0, 0,0, 0,0, 0,0],
[7,15,5,0,0, 0,0, 0,0, 0,0],
[58,12,10,11,10,11,11,11,12,12,12],
[16,8,13,0,0, 0,0, 0,0, 0,0],
[37,8,15,9,15,10,15,10,14,0,0],
[34,3,6,2,6,2,7,3,7,3,8],
[1,1,14,0,0, 0,0, 0,0, 0,0],
[4,4,11,0,0, 0,0, 0,0, 0,0],
[8,2,9,0,0, 0,0, 0,0, 0,0],
[13,6,6,0,0, 0,0, 0,0, 0,0],
[31,1,16,1,15,2,15,0,0, 0,0],
[11,9,9,0,0, 0,0, 0,0, 0,0],
[35,15,9,15,8,15,7,0,0, 0,0],
[16,11,14,12,14,0,0, 0,0, 0,0],
[7,11,2,0,0, 0,0, 0,0, 0,0],
[11,4,2,5,2,0,0, 0,0, 0,0],
[32,11,16,10,16,9,16,8,16,0,0],
[1,9,12,0,0, 0,0, 0,0, 0,0],
[4,7,7,0,0, 0,0, 0,0, 0,0],
[14,1,5,0,0, 0,0, 0,0, 0,0],
[8,5,16,0,0, 0,0, 0,0, 0,0],
[26,15,15,15,16,14,16,13,16,0,0],
[28,4,10,5,10,6,10,7,10,7,9],
[28,15,13,15,14,0,0, 0,0, 0,0],
[43,3,16,2,16,4,16,4,15,0,0],
[7,4,7,0,0, 0,0, 0,0, 0,0],
[27,5,3,4,3,4,4,4,5,0,0],
[37,2,10,1,10,1,11,1,12,2,12],
[34,14,4,13,4,13,3,0,0, 0,0],
[27,7,16,7,15,7,14,0,0, 0,0],
[12,11,5,0,0, 0,0, 0,0, 0,0],
[43,6,9,5,9,4,9,4,8,0,0],
[23,10,8,10,9,0,0, 0,0, 0,0],
[13,1,13,0,0, 0,0, 0,0, 0,0],
[35,16,11,16,10,16,9,0,0, 0,0],
[8,14,13,0,0, 0,0, 0,0, 0,0],
[14,9,1,0,0, 0,0, 0,0, 0,0],
[29,8,14,9,14,9,13,0,0, 0,0],
[4,13,5,0,0, 0,0, 0,0, 0,0],
[20,10,11,9,11,0,0, 0,0, 0,0],
[21,12,15,11,15,12,16,0,0, 0,0],
[15,6,1,0,0, 0,0, 0,0, 0,0],
[13,16,5,0,0, 0,0, 0,0, 0,0],
[6,6,15,6,16,0,0, 0,0, 0,0],
[18,10,5,10,6,10,7,0,0, 0,0],
[33,8,6,8,5,8,4,9,5,0,0],
[18,6,2,6,3,0,0, 0,0, 0,0],
[3,12,3,0,0, 0,0, 0,0, 0,0],
[38,7,11,6,11,5,11,0,0, 0,0],
[30,4,1,5,1,3,1,2,1,0,0],
[7,1,1,0,0, 0,0, 0,0, 0,0],
[10,2,2,0,0, 0,0, 0,0, 0,0],
[8,3,10,3,9,0,0, 0,0, 0,0],
[29,3,3,3,2,0,0, 0,0, 0,0],
[3,1,4,0,0, 0,0, 0,0, 0,0],
[15,1,2,1,3,0,0, 0,0, 0,0],
[22,14,3,15,3,0,0, 0,0, 0,0],
[30,12,6,13,6,14,6,14,5,0,0],
[51,1,7,1,6,1,8,1,9,2,8],
[17,8,2,9,2,0,0, 0,0, 0,0],
[30,7,6,7,5,6,5,0,0, 0,0],
[5,12,9,11,9,0,0, 0,0, 0,0],
[13,2,14,2,13,0,0, 0,0, 0,0],
[15,11,4,11,3,0,0, 0,0, 0,0],
[9,13,15,0,0, 0,0, 0,0, 0,0],
[38,13,14,14,14,14,15,0,0, 0,0],
[16,16,2,0,0, 0,0, 0,0, 0,0],
[25,6,7,5,7,0,0, 0,0, 0,0],
[32,3,14,3,15,4,14,4,13,0,0],
[41,6,12,7,12,7,13,8,12,8,11],
[15,7,1,7,2,8,1,0,0, 0,0],
[12,7,8,0,0, 0,0, 0,0, 0,0],
[3,8,7,0,0, 0,0, 0,0, 0,0],
[9,8,8,0,0, 0,0, 0,0, 0,0],
[7,8,9,0,0, 0,0, 0,0, 0,0],
[13,8,10,0,0, 0,0, 0,0, 0,0],
[16,9,7,9,8,0,0, 0,0, 0,0],
[16,9,10,10,10,0,0, 0,0, 0,0],
[4,11,6,0,0, 0,0, 0,0, 0,0],
[32,11,7,12,7,12,8,0,0, 0,0],
[9,12,4,12,5,0,0, 0,0, 0,0],
[15,12,11,13,11,0,0, 0,0, 0,0],
[1,13,1,0,0, 0,0, 0,0, 0,0],
[13,14,1,0,0, 0,0, 0,0, 0,0],
[9,15,1,15,2,16,1,0,0, 0,0],
[24,15,4,16,4,16,3,0,0, 0,0],
[24,15,6,16,6,16,7,0,0, 0,0]
]
